p tw 960 14401 7 
1 8 
1 11 
2 9 
2 10 
2 12 
3 7 
3 10 
3 151 
4 8 
4 9 
4 152 
5 7 
5 9 
5 661 
6 8 
6 10 
6 662 
11 17 
11 18 
12 19 
12 20 
13 17 
13 20 
13 153 
14 18 
14 19 
14 154 
15 17 
15 19 
15 471 
16 18 
16 20 
16 472 
21 27 
21 28 
21 81 
22 29 
22 30 
22 82 
23 27 
23 30 
23 741 
24 28 
24 29 
24 742 
25 27 
25 29 
25 841 
26 28 
26 30 
26 842 
31 37 
31 38 
31 391 
32 39 
32 40 
32 392 
33 37 
33 40 
33 843 
34 38 
34 39 
34 844 
35 37 
35 39 
35 921 
36 38 
36 40 
36 922 
41 47 
41 48 
41 101 
42 49 
42 50 
42 102 
43 47 
43 50 
43 181 
44 48 
44 49 
44 182 
45 47 
45 49 
45 571 
46 48 
46 50 
46 572 
51 57 
51 58 
51 421 
52 59 
52 60 
52 422 
53 57 
53 60 
53 431 
54 58 
54 59 
54 432 
55 57 
55 59 
55 573 
56 58 
56 60 
56 574 
61 67 
61 68 
61 91 
62 69 
62 70 
62 92 
63 67 
63 70 
63 221 
64 68 
64 69 
64 222 
65 67 
65 69 
65 663 
66 68 
66 70 
66 664 
71 77 
71 78 
71 161 
72 79 
72 80 
72 162 
73 77 
73 80 
73 241 
74 78 
74 79 
74 242 
75 77 
75 79 
75 461 
76 78 
76 80 
76 462 
81 87 
81 88 
82 89 
82 90 
83 87 
83 90 
83 501 
84 88 
84 89 
84 502 
85 87 
85 89 
85 721 
86 88 
86 90 
86 722 
91 97 
91 98 
92 99 
92 100 
93 97 
93 100 
93 103 
94 98 
94 99 
94 104 
95 97 
95 99 
95 183 
96 98 
96 100 
96 184 
101 107 
101 108 
102 109 
102 110 
103 107 
103 110 
104 108 
104 109 
105 107 
105 109 
105 941 
106 108 
106 110 
106 942 
111 117 
111 118 
111 231 
112 119 
112 120 
112 232 
113 117 
113 120 
113 371 
114 118 
114 119 
114 372 
115 117 
115 119 
115 723 
116 118 
116 120 
116 724 
121 127 
121 128 
121 191 
122 129 
122 130 
122 192 
123 127 
123 130 
123 321 
124 128 
124 129 
124 322 
125 127 
125 129 
125 861 
126 128 
126 130 
126 862 
131 137 
131 138 
131 651 
132 139 
132 140 
132 652 
133 137 
133 140 
133 851 
134 138 
134 139 
134 852 
135 137 
135 139 
135 923 
136 138 
136 140 
136 924 
141 147 
141 148 
141 261 
142 149 
142 150 
142 262 
143 147 
143 150 
143 351 
144 148 
144 149 
144 352 
145 147 
145 149 
145 811 
146 148 
146 150 
146 812 
151 157 
151 158 
152 159 
152 160 
153 157 
153 160 
154 158 
154 159 
155 157 
155 159 
155 871 
156 158 
156 160 
156 872 
161 167 
161 168 
162 169 
162 170 
163 167 
163 170 
163 451 
164 168 
164 169 
164 452 
165 167 
165 169 
165 621 
166 168 
166 170 
166 622 
171 177 
171 178 
171 281 
172 179 
172 180 
172 282 
173 177 
173 180 
173 791 
174 178 
174 179 
174 792 
175 177 
175 179 
175 951 
176 178 
176 180 
176 952 
181 187 
181 188 
182 189 
182 190 
183 187 
183 190 
184 188 
184 189 
185 187 
185 189 
185 551 
186 188 
186 190 
186 552 
191 197 
191 198 
192 199 
192 200 
193 197 
193 200 
193 291 
194 198 
194 199 
194 292 
195 197 
195 199 
195 821 
196 198 
196 200 
196 822 
201 207 
201 208 
201 341 
202 209 
202 210 
202 342 
203 207 
203 210 
203 401 
204 208 
204 209 
204 402 
205 207 
205 209 
205 931 
206 208 
206 210 
206 932 
211 217 
211 218 
211 271 
212 219 
212 220 
212 272 
213 217 
213 220 
213 611 
214 218 
214 219 
214 612 
215 217 
215 219 
215 911 
216 218 
216 220 
216 912 
221 227 
221 228 
222 229 
222 230 
223 227 
223 230 
223 311 
224 228 
224 229 
224 312 
225 227 
225 229 
225 913 
226 228 
226 230 
226 914 
231 237 
231 238 
232 239 
232 240 
233 237 
233 240 
233 691 
234 238 
234 239 
234 692 
235 237 
235 239 
235 881 
236 238 
236 240 
236 882 
241 247 
241 248 
242 249 
242 250 
243 247 
243 250 
243 323 
244 248 
244 249 
244 324 
245 247 
245 249 
245 411 
246 248 
246 250 
246 412 
251 257 
251 258 
251 441 
252 259 
252 260 
252 442 
253 257 
253 260 
253 751 
254 258 
254 259 
254 752 
255 257 
255 259 
255 901 
256 258 
256 260 
256 902 
261 267 
261 268 
262 269 
262 270 
263 267 
263 270 
263 511 
264 268 
264 269 
264 512 
265 267 
265 269 
265 601 
266 268 
266 270 
266 602 
271 277 
271 278 
272 279 
272 280 
273 277 
273 280 
273 283 
274 278 
274 279 
274 284 
275 277 
275 279 
275 903 
276 278 
276 280 
276 904 
281 287 
281 288 
282 289 
282 290 
283 287 
283 290 
284 288 
284 289 
285 287 
285 289 
285 381 
286 288 
286 290 
286 382 
291 297 
291 298 
292 299 
292 300 
293 297 
293 300 
293 613 
294 298 
294 299 
294 614 
295 297 
295 299 
295 743 
296 298 
296 300 
296 744 
301 307 
301 308 
301 521 
302 309 
302 310 
302 522 
303 307 
303 310 
303 653 
304 308 
304 309 
304 654 
305 307 
305 309 
305 753 
306 308 
306 310 
306 754 
311 317 
311 318 
312 319 
312 320 
313 317 
313 320 
313 361 
314 318 
314 319 
314 362 
315 317 
315 319 
315 701 
316 318 
316 320 
316 702 
321 327 
321 328 
322 329 
322 330 
323 327 
323 330 
324 328 
324 329 
325 327 
325 329 
325 363 
326 328 
326 330 
326 364 
331 337 
331 338 
331 433 
332 339 
332 340 
332 434 
333 337 
333 340 
333 731 
334 338 
334 339 
334 732 
335 337 
335 339 
335 801 
336 338 
336 340 
336 802 
341 347 
341 348 
342 349 
342 350 
343 347 
343 350 
343 711 
344 348 
344 349 
344 712 
345 347 
345 349 
345 883 
346 348 
346 350 
346 884 
351 357 
351 358 
352 359 
352 360 
353 357 
353 360 
353 453 
354 358 
354 359 
354 454 
355 357 
355 359 
355 793 
356 358 
356 360 
356 794 
361 367 
361 368 
362 369 
362 370 
363 367 
363 370 
364 368 
364 369 
365 367 
365 369 
365 423 
366 368 
366 370 
366 424 
371 377 
371 378 
372 379 
372 380 
373 377 
373 380 
373 481 
374 378 
374 379 
374 482 
375 377 
375 379 
375 781 
376 378 
376 380 
376 782 
381 387 
381 388 
382 389 
382 390 
383 387 
383 390 
383 513 
384 388 
384 389 
384 514 
385 387 
385 389 
385 603 
386 388 
386 390 
386 604 
391 397 
391 398 
392 399 
392 400 
393 397 
393 400 
393 541 
394 398 
394 399 
394 542 
395 397 
395 399 
395 591 
396 398 
396 400 
396 592 
401 407 
401 408 
402 409 
402 410 
403 407 
403 410 
403 553 
404 408 
404 409 
404 554 
405 407 
405 409 
405 831 
406 408 
406 410 
406 832 
411 417 
411 418 
412 419 
412 420 
413 417 
413 420 
413 463 
414 418 
414 419 
414 464 
415 417 
415 419 
415 605 
416 418 
416 420 
416 606 
421 427 
421 428 
422 429 
422 430 
423 427 
423 430 
424 428 
424 429 
425 427 
425 429 
425 581 
426 428 
426 430 
426 582 
431 437 
431 438 
432 439 
432 440 
433 437 
433 440 
434 438 
434 439 
435 437 
435 439 
435 873 
436 438 
436 440 
436 874 
441 447 
441 448 
442 449 
442 450 
443 447 
443 450 
443 641 
444 448 
444 449 
444 642 
445 447 
445 449 
445 665 
446 448 
446 450 
446 666 
451 457 
451 458 
452 459 
452 460 
453 457 
453 460 
454 458 
454 459 
455 457 
455 459 
455 681 
456 458 
456 460 
456 682 
461 467 
461 468 
462 469 
462 470 
463 467 
463 470 
464 468 
464 469 
465 467 
465 469 
465 671 
466 468 
466 470 
466 672 
471 477 
471 478 
472 479 
472 480 
473 477 
473 480 
473 531 
474 478 
474 479 
474 532 
475 477 
475 479 
475 953 
476 478 
476 480 
476 954 
481 487 
481 488 
482 489 
482 490 
483 487 
483 490 
483 845 
484 488 
484 489 
484 846 
485 487 
485 489 
485 933 
486 488 
486 490 
486 934 
491 497 
491 498 
491 523 
492 499 
492 500 
492 524 
493 497 
493 500 
493 615 
494 498 
494 499 
494 616 
495 497 
495 499 
495 761 
496 498 
496 500 
496 762 
501 507 
501 508 
502 509 
502 510 
503 507 
503 510 
503 525 
504 508 
504 509 
504 526 
505 507 
505 509 
505 745 
506 508 
506 510 
506 746 
511 517 
511 518 
512 519 
512 520 
513 517 
513 520 
514 518 
514 519 
515 517 
515 519 
515 833 
516 518 
516 520 
516 834 
521 527 
521 528 
522 529 
522 530 
523 527 
523 530 
524 528 
524 529 
525 527 
525 529 
526 528 
526 530 
531 537 
531 538 
532 539 
532 540 
533 537 
533 540 
533 543 
534 538 
534 539 
534 544 
535 537 
535 539 
535 643 
536 538 
536 540 
536 644 
541 547 
541 548 
542 549 
542 550 
543 547 
543 550 
544 548 
544 549 
545 547 
545 549 
545 813 
546 548 
546 550 
546 814 
551 557 
551 558 
552 559 
552 560 
553 557 
553 560 
554 558 
554 559 
555 557 
555 559 
555 583 
556 558 
556 560 
556 584 
561 567 
561 568 
561 693 
562 569 
562 570 
562 694 
563 567 
563 570 
563 763 
564 568 
564 569 
564 764 
565 567 
565 569 
565 803 
566 568 
566 570 
566 804 
571 577 
571 578 
572 579 
572 580 
573 577 
573 580 
574 578 
574 579 
575 577 
575 579 
575 915 
576 578 
576 580 
576 916 
581 587 
581 588 
582 589 
582 590 
583 587 
583 590 
584 588 
584 589 
585 587 
585 589 
585 771 
586 588 
586 590 
586 772 
591 597 
591 598 
592 599 
592 600 
593 597 
593 600 
593 823 
594 598 
594 599 
594 824 
595 597 
595 599 
595 955 
596 598 
596 600 
596 956 
601 607 
601 608 
602 609 
602 610 
603 607 
603 610 
604 608 
604 609 
605 607 
605 609 
606 608 
606 610 
611 617 
611 618 
612 619 
612 620 
613 617 
613 620 
614 618 
614 619 
615 617 
615 619 
616 618 
616 620 
621 627 
621 628 
622 629 
622 630 
623 627 
623 630 
623 631 
624 628 
624 629 
624 632 
625 627 
625 629 
625 863 
626 628 
626 630 
626 864 
631 637 
631 638 
632 639 
632 640 
633 637 
633 640 
633 673 
634 638 
634 639 
634 674 
635 637 
635 639 
635 935 
636 638 
636 640 
636 936 
641 647 
641 648 
642 649 
642 650 
643 647 
643 650 
644 648 
644 649 
645 647 
645 649 
645 795 
646 648 
646 650 
646 796 
651 657 
651 658 
652 659 
652 660 
653 657 
653 660 
654 658 
654 659 
655 657 
655 659 
655 783 
656 658 
656 660 
656 784 
661 667 
661 668 
662 669 
662 670 
663 667 
663 670 
664 668 
664 669 
665 667 
665 669 
666 668 
666 670 
671 677 
671 678 
672 679 
672 680 
673 677 
673 680 
674 678 
674 679 
675 677 
675 679 
675 713 
676 678 
676 680 
676 714 
681 687 
681 688 
682 689 
682 690 
683 687 
683 690 
683 715 
684 688 
684 689 
684 716 
685 687 
685 689 
685 805 
686 688 
686 690 
686 806 
691 697 
691 698 
692 699 
692 700 
693 697 
693 700 
694 698 
694 699 
695 697 
695 699 
695 703 
696 698 
696 700 
696 704 
701 707 
701 708 
702 709 
702 710 
703 707 
703 710 
704 708 
704 709 
705 707 
705 709 
705 835 
706 708 
706 710 
706 836 
711 717 
711 718 
712 719 
712 720 
713 717 
713 720 
714 718 
714 719 
715 717 
715 719 
716 718 
716 720 
721 727 
721 728 
722 729 
722 730 
723 727 
723 730 
724 728 
724 729 
725 727 
725 729 
725 943 
726 728 
726 730 
726 944 
731 737 
731 738 
732 739 
732 740 
733 737 
733 740 
733 853 
734 738 
734 739 
734 854 
735 737 
735 739 
735 905 
736 738 
736 740 
736 906 
741 747 
741 748 
742 749 
742 750 
743 747 
743 750 
744 748 
744 749 
745 747 
745 749 
746 748 
746 750 
751 757 
751 758 
752 759 
752 760 
753 757 
753 760 
754 758 
754 759 
755 757 
755 759 
755 773 
756 758 
756 760 
756 774 
761 767 
761 768 
762 769 
762 770 
763 767 
763 770 
764 768 
764 769 
765 767 
765 769 
765 815 
766 768 
766 770 
766 816 
771 777 
771 778 
772 779 
772 780 
773 777 
773 780 
774 778 
774 779 
775 777 
775 779 
775 891 
776 778 
776 780 
776 892 
781 787 
781 788 
782 789 
782 790 
783 787 
783 790 
784 788 
784 789 
785 787 
785 789 
785 893 
786 788 
786 790 
786 894 
791 797 
791 798 
792 799 
792 800 
793 797 
793 800 
794 798 
794 799 
795 797 
795 799 
796 798 
796 800 
801 807 
801 808 
802 809 
802 810 
803 807 
803 810 
804 808 
804 809 
805 807 
805 809 
806 808 
806 810 
811 817 
811 818 
812 819 
812 820 
813 817 
813 820 
814 818 
814 819 
815 817 
815 819 
816 818 
816 820 
821 827 
821 828 
822 829 
822 830 
823 827 
823 830 
824 828 
824 829 
825 827 
825 829 
825 865 
826 828 
826 830 
826 866 
831 837 
831 838 
832 839 
832 840 
833 837 
833 840 
834 838 
834 839 
835 837 
835 839 
836 838 
836 840 
841 847 
841 848 
842 849 
842 850 
843 847 
843 850 
844 848 
844 849 
845 847 
845 849 
846 848 
846 850 
851 857 
851 858 
852 859 
852 860 
853 857 
853 860 
854 858 
854 859 
855 857 
855 859 
855 885 
856 858 
856 860 
856 886 
861 867 
861 868 
862 869 
862 870 
863 867 
863 870 
864 868 
864 869 
865 867 
865 869 
866 868 
866 870 
871 877 
871 878 
872 879 
872 880 
873 877 
873 880 
874 878 
874 879 
875 877 
875 879 
875 925 
876 878 
876 880 
876 926 
881 887 
881 888 
882 889 
882 890 
883 887 
883 890 
884 888 
884 889 
885 887 
885 889 
886 888 
886 890 
891 897 
891 898 
892 899 
892 900 
893 897 
893 900 
894 898 
894 899 
895 897 
895 899 
895 945 
896 898 
896 900 
896 946 
901 907 
901 908 
902 909 
902 910 
903 907 
903 910 
904 908 
904 909 
905 907 
905 909 
906 908 
906 910 
911 917 
911 918 
912 919 
912 920 
913 917 
913 920 
914 918 
914 919 
915 917 
915 919 
916 918 
916 920 
921 927 
921 928 
922 929 
922 930 
923 927 
923 930 
924 928 
924 929 
925 927 
925 929 
926 928 
926 930 
931 937 
931 938 
932 939 
932 940 
933 937 
933 940 
934 938 
934 939 
935 937 
935 939 
936 938 
936 940 
941 947 
941 948 
942 949 
942 950 
943 947 
943 950 
944 948 
944 949 
945 947 
945 949 
946 948 
946 950 
951 957 
951 958 
952 959 
952 960 
953 957 
953 960 
954 958 
954 959 
955 957 
955 959 
956 958 
956 960 
